% Logging successfully configured
=====UNSATISFIABLE=====
% time elapsed: 8.16 s
%%%mzn-stat: initTime=0.002236452
%%%mzn-stat: nodes=0
%%%mzn-stat: restarts=0
%%%mzn-stat: peakDepth=0
%%%mzn-stat: solveTime=0
%%%mzn-stat: variables=1
%%%mzn-stat: propagators=2
%%%mzn-stat: failures=1
%%%mzn-stat: propagations=2
%%%mzn-stat: nogoods=1
%%%mzn-stat: numAtomicConstraintsPropagated=0
%%%mzn-stat: AverageConflictSize=0
%%%mzn-stat: NumUnitNogoodsLearned=0
%%%mzn-stat: AverageLearnedNogoodLength=0
%%%mzn-stat: AverageBacktrackAmount=0
%%%mzn-stat: AverageLbd=0
%%%mzn-stat: 0AutonomousSearchNumBackupCalled=0
%%%mzn-stat: 0AutonomousSearchNumPredicatesRemoved=0
%%%mzn-stat: 0AutonomousSearchNumCalls=0
%%%mzn-stat: 0AutonomousSearchNumPredicatesAdded=0
%%%mzn-stat: 0AutonomousSearchAverageSizeOfHeap=0
%%%mzn-stat: 0AutonomousSearchNumAssignedPredicatesEncountered=0
%%%mzn-stat-end
